NAME 
ROWS
 N  OBJ
 L  R0      
 E  R1      
 E  R2      
 E  R3      
 E  R4      
 E  R5      
 E  R6      
 E  R7      
 E  R8      
 E  R9      
 E  R10     
 E  R11     
 E  R12     
 E  R13     
 E  R14     
 E  R15     
 E  R16     
 E  R17     
 E  R18     
 E  R19     
 E  R20     
 E  R21     
 E  R22     
 E  R23     
 E  R24     
 E  R25     
 E  R26     
 E  R27     
 E  R28     
 E  R29     
 E  R30     
COLUMNS
    MARKER    'MARKER'                 'INTORG'
    I0(3)     OBJ       45
    I0(3)     R0        -23
    I0(3)     R1        11
    I0(3)     R30       1
    I1(3)     OBJ       196
    I1(3)     R0        -199
    I1(3)     R2        11
    I1(3)     R30       1
    I2(3)     OBJ       -67
    I2(3)     R0        -104
    I2(3)     R3        16
    I2(3)     R30       1
    I3(3)     OBJ       175
    I3(3)     R0        -115
    I3(3)     R4        17
    I3(3)     R30       1
    I4(3)     OBJ       184
    I4(3)     R0        131
    I4(3)     R5        -1
    I4(3)     R30       1
    I5(3)     OBJ       -44
    I5(3)     R0        106
    I5(3)     R6        19
    I5(3)     R30       1
    I6(3)     OBJ       -45
    I6(3)     R0        32
    I6(3)     R7        4
    I6(3)     R30       1
    I7(3)     OBJ       -1
    I7(3)     R0        109
    I7(3)     R8        15
    I7(3)     R30       1
    I8(3)     OBJ       3
    I8(3)     R0        -159
    I8(3)     R9        5
    I8(3)     R30       1
    I9(3)     OBJ       -115
    I9(3)     R0        -32
    I9(3)     R10       17
    I9(3)     R30       1
    I10(3)    OBJ       -82
    I10(3)    R0        -178
    I10(3)    R11       17
    I10(3)    R30       1
    I11(3)    OBJ       21
    I11(3)    R0        -96
    I11(3)    R12       2
    I11(3)    R30       1
    I12(3)    OBJ       -183
    I12(3)    R0        112
    I12(3)    R13       2
    I12(3)    R30       1
    I13(3)    OBJ       37
    I13(3)    R0        155
    I13(3)    R14       18
    I13(3)    R30       1
    I14(3)    OBJ       -177
    I14(3)    R0        60
    I14(3)    R15       10
    I14(3)    R30       1
    I15(3)    OBJ       118
    I15(3)    R0        63
    I15(3)    R16       1
    I15(3)    R30       1
    I16(3)    OBJ       66
    I16(3)    R0        -134
    I16(3)    R17       3
    I16(3)    R30       1
    I17(3)    OBJ       -57
    I17(3)    R0        29
    I17(3)    R18       9
    I17(3)    R30       1
    I18(3)    OBJ       -4
    I18(3)    R0        191
    I18(3)    R19       10
    I18(3)    R30       1
    I19(3)    OBJ       161
    I19(3)    R0        43
    I19(3)    R20       11
    I19(3)    R30       1
    I20(3)    OBJ       -161
    I20(3)    R0        80
    I20(3)    R21       2
    I20(3)    R30       1
    I21(3)    OBJ       93
    I21(3)    R0        -155
    I21(3)    R22       19
    I21(3)    R30       1
    I22(3)    OBJ       -181
    I22(3)    R0        139
    I22(3)    R23       16
    I22(3)    R30       1
    I23(3)    OBJ       100
    I23(3)    R0        40
    I23(3)    R24       12
    I23(3)    R30       1
    I24(3)    OBJ       5
    I24(3)    R0        160
    I24(3)    R25       4
    I24(3)    R30       1
    I25(3)    OBJ       -43
    I25(3)    R0        175
    I25(3)    R26       19
    I25(3)    R30       1
    I26(2)    OBJ       135
    I26(2)    R0        -147
    I26(2)    R30       1
    I27(3)    OBJ       -98
    I27(3)    R0        -171
    I27(3)    R28       3
    I27(3)    R30       1
    MARKER    'MARKER'                 'INTEND'
    C28(29)   OBJ       5
    C28(29)   R0        2
    C28(29)   R2        18
    C28(29)   R3        18
    C28(29)   R4        15
    C28(29)   R5        5
    C28(29)   R6        2
    C28(29)   R7        -1
    C28(29)   R8        19
    C28(29)   R9        2
    C28(29)   R10       6
    C28(29)   R11       17
    C28(29)   R12       2
    C28(29)   R13       4
    C28(29)   R14       14
    C28(29)   R15       -1
    C28(29)   R16       17
    C28(29)   R17       7
    C28(29)   R18       9
    C28(29)   R19       12
    C28(29)   R20       14
    C28(29)   R21       11
    C28(29)   R22       19
    C28(29)   R23       -1
    C28(29)   R24       6
    C28(29)   R25       2
    C28(29)   R26       15
    C28(29)   R27       8
    C28(29)   R28       4
    C28(29)   R29       19
    C29(28)   OBJ       8
    C29(28)   R0        4
    C29(28)   R1        1
    C29(28)   R2        9
    C29(28)   R3        1
    C29(28)   R4        12
    C29(28)   R5        3
    C29(28)   R6        6
    C29(28)   R7        8
    C29(28)   R8        13
    C29(28)   R9        13
    C29(28)   R10       19
    C29(28)   R11       8
    C29(28)   R12       19
    C29(28)   R13       11
    C29(28)   R14       15
    C29(28)   R17       6
    C29(28)   R18       10
    C29(28)   R19       1
    C29(28)   R20       11
    C29(28)   R21       8
    C29(28)   R22       19
    C29(28)   R23       3
    C29(28)   R24       7
    C29(28)   R25       15
    C29(28)   R26       10
    C29(28)   R27       9
    C29(28)   R28       10
    C29(28)   R29       7
    C30(1)    R1        1
    C31(1)    R2        1
    C32(1)    R3        1
    C33(1)    R4        1
    C34(1)    R5        1
    C35(1)    R6        1
    C36(1)    R7        1
    C37(1)    R8        1
    C38(1)    R9        1
    C39(1)    R10       1
    C40(1)    R11       1
    C41(1)    R12       1
    C42(1)    R13       1
    C43(1)    R14       1
    C44(1)    R15       1
    C45(1)    R16       1
    C46(1)    R17       1
    C47(1)    R18       1
    C48(1)    R19       1
    C49(1)    R20       1
    C50(1)    R21       1
    C51(1)    R22       1
    C52(1)    R23       1
    C53(1)    R24       1
    C54(1)    R25       1
    C55(1)    R26       1
    C56(1)    R27       1
    C57(1)    R28       1
    C58(1)    R29       1
    C59(1)    R30       1
RHS
    RHS1      R0        -65
    RHS1      R1        69
    RHS1      R2        93
    RHS1      R3        81
    RHS1      R4        81
    RHS1      R5        67
    RHS1      R6        95
    RHS1      R7        85
    RHS1      R8        67
    RHS1      R9        56
    RHS1      R10       57
    RHS1      R11       98
    RHS1      R12       75
    RHS1      R13       81
    RHS1      R14       94
    RHS1      R15       89
    RHS1      R16       74
    RHS1      R17       85
    RHS1      R18       92
    RHS1      R19       54
    RHS1      R20       75
    RHS1      R21       60
    RHS1      R22       97
    RHS1      R23       84
    RHS1      R24       99
    RHS1      R25       93
    RHS1      R26       84
    RHS1      R27       54
    RHS1      R28       52
    RHS1      R29       66
    RHS1      R30       9
BOUNDS
 UP BND1      I0(3)     1
 UP BND1      I1(3)     1
 UP BND1      I2(3)     1
 UP BND1      I3(3)     1
 UP BND1      I4(3)     1
 UP BND1      I5(3)     1
 UP BND1      I6(3)     1
 UP BND1      I7(3)     1
 UP BND1      I8(3)     1
 UP BND1      I9(3)     1
 UP BND1      I10(3)    1
 UP BND1      I11(3)    1
 UP BND1      I12(3)    1
 UP BND1      I13(3)    1
 UP BND1      I14(3)    1
 UP BND1      I15(3)    1
 UP BND1      I16(3)    1
 UP BND1      I17(3)    1
 UP BND1      I18(3)    1
 UP BND1      I19(3)    1
 UP BND1      I20(3)    1
 UP BND1      I21(3)    1
 UP BND1      I22(3)    1
 UP BND1      I23(3)    1
 UP BND1      I24(3)    1
 UP BND1      I25(3)    1
 UP BND1      I26(2)    1
 UP BND1      I27(3)    1
ENDATA
